c turning on binary mode checking
c parsing input formula with 259840 variables and 1039934 clauses
c finished parsing, read 3124191 bytes from proof file
c detected empty clause; start verification via backward checking
c 2092 of 1039934 clauses in core                            
c 597 of 123054 lemmas in core using 10206 resolution steps
c 0 RAT lemmas in core; 25 redundant literals in core lemmas
s VERIFIED
c verification time: 1.229 seconds
